projected/problems_b25_r0_d7_m100_s666/_DIMACS/b25_d7_r0_s666_019.cnf
p cnf 217 345 25
c p show 1 2 3 4 5 6 7 8 9 10 11 12 13 14 15 16 17 18 19 20 21 22 23 24 25
-167 -14 0
-167 1 0
-168 13 0
-168 10 0
-169 168 167 0
-170 -19 0
-171 2 5 0
-172 -5 -2 0
-173 172 0
-173 171 0
-174 173 170 0
-175 174 169 0
-176 1 -5 0
-177 -17 0
-177 7 0
-178 177 0
-178 176 0
-179 10 0
-179 -14 0
-180 12 0
-180 -17 0
-181 180 0
-181 179 0
-182 181 0
-182 178 0
-183 182 0
-183 175 0
-184 14 0
-184 7 0
-185 3 -10 0
-186 185 0
-186 184 0
-187 5 0
-187 -17 0
-188 -12 16 0
-189 188 187 0
-190 189 186 0
-191 -10 2 0
-192 21 0
-192 5 0
-193 192 0
-193 191 0
-194 -4 0
-194 -19 0
-195 19 0
-195 4 0
-196 195 194 0
-197 -14 8 0
-198 197 196 0
-199 198 193 0
-200 199 0
-200 190 0
-201 200 183 0
-202 14 0
-202 1 0
-203 25 0
-203 5 0
-204 203 202 0
-205 -25 -5 0
-206 -14 -1 0
-207 206 205 0
-208 207 0
-208 204 0
-209 -24 0
-209 22 0
-210 -12 0
-210 -21 0
-211 210 209 0
-212 211 208 0
-213 18 0
-213 -19 0
-214 21 0
-214 19 0
-215 214 213 0
-216 1 0
-216 -5 0
-217 -9 0
-217 3 0
-26 217 216 0
-27 26 215 0
-28 27 212 0
-128 15 14 0
-134 21 -6 0
-140 134 0
-140 128 0
-29 -16 0
-151 16 0
-30 151 0
-30 29 0
-31 10 -7 0
-32 31 0
-32 30 0
-33 32 140 0
-34 -13 0
-34 25 0
-35 -11 0
-35 19 0
-36 35 34 0
-37 11 -19 0
-38 13 -25 0
-39 38 37 0
-40 39 0
-40 36 0
-41 -21 0
-41 -2 0
-42 -23 0
-42 11 0
-43 42 41 0
-44 43 40 0
-45 44 33 0
-46 45 0
-46 28 0
-47 46 201 0
-48 8 14 0
-49 23 -9 0
-50 49 0
-50 48 0
-51 14 8 0
-52 10 -25 0
-53 52 0
-53 51 0
-54 53 0
-54 50 0
-55 -21 -7 0
-56 -18 17 0
-57 56 55 0
-58 23 0
-58 4 0
-59 18 0
-59 5 0
-60 59 0
-60 58 0
-61 60 57 0
-62 61 54 0
-63 21 0
-63 7 0
-64 18 0
-64 -17 0
-65 64 0
-65 63 0
-66 -23 -4 0
-67 -18 -5 0
-68 67 66 0
-69 68 0
-69 65 0
-70 -8 0
-70 -14 0
-71 -23 0
-71 9 0
-72 71 70 0
-73 -14 0
-73 -8 0
-74 -10 0
-74 25 0
-75 74 73 0
-76 75 72 0
-77 76 69 0
-78 77 0
-78 62 0
-79 -20 -6 0
-80 1 0
-80 -10 0
-81 80 0
-81 79 0
-82 -1 10 0
-83 20 0
-83 6 0
-84 83 0
-84 82 0
-85 84 81 0
-86 -18 -20 0
-87 24 1 0
-88 87 86 0
-89 88 85 0
-90 -25 18 0
-91 -2 0
-91 3 0
-92 91 90 0
-93 -15 -17 0
-94 8 -9 0
-95 94 0
-95 93 0
-96 95 0
-96 92 0
-97 96 89 0
-98 97 78 0
-99 -6 13 0
-100 12 23 0
-101 -23 -12 0
-102 101 0
-102 100 0
-103 102 0
-103 99 0
-104 25 20 0
-105 -25 9 0
-106 105 104 0
-107 106 103 0
-108 11 0
-108 13 0
-109 20 0
-109 -7 0
-110 109 0
-110 108 0
-111 -21 0
-111 3 0
-112 14 23 0
-113 112 0
-113 111 0
-114 113 0
-114 110 0
-115 114 0
-115 107 0
-116 -11 -13 0
-117 -20 7 0
-118 117 116 0
-119 21 -3 0
-120 -14 0
-120 -23 0
-121 120 119 0
-122 121 118 0
-123 6 0
-123 -13 0
-124 -12 0
-124 -23 0
-125 23 0
-125 12 0
-126 125 124 0
-127 126 123 0
-129 -25 0
-129 -20 0
-130 25 0
-130 -9 0
-131 130 0
-131 129 0
-132 131 0
-132 127 0
-133 132 0
-133 122 0
-135 133 115 0
-136 -15 20 0
-137 10 0
-137 -3 0
-138 137 136 0
-139 18 17 0
-141 -7 17 0
-142 141 0
-142 139 0
-143 142 0
-143 138 0
-144 -18 0
-144 -17 0
-145 7 0
-145 -17 0
-146 145 144 0
-147 15 0
-147 -20 0
-148 -10 3 0
-149 148 0
-149 147 0
-150 149 0
-150 146 0
-152 150 143 0
-153 9 0
-153 4 0
-154 19 -7 0
-155 7 -19 0
-156 155 0
-156 154 0
-157 156 153 0
-158 -8 -24 0
-159 8 0
-159 -10 0
-160 10 0
-160 -8 0
-161 160 159 0
-162 161 0
-162 158 0
-163 162 0
-163 157 0
-164 163 0
-164 152 0
-165 164 135 0
-166 165 98 0
166 0
47 0
-203 -205 0
-205 -203 0
-206 -202 0
-202 -206 0
-37 -35 0
-38 -34 0
-34 -38 0
-55 -63 0
-56 -64 0
-57 -65 0
-65 -57 0
-58 -66 0
-59 -67 0
-60 -68 0
-68 -60 0
-69 -61 0
-48 -70 0
-71 -49 0
-49 -71 0
-50 -72 0
-51 -73 0
-74 -52 0
-52 -74 0
-53 -75 0
-54 -76 0
-82 -80 0
-80 -82 0
-83 -79 0
-108 -116 0
-116 -108 0
-109 -117 0
-117 -109 0
-118 -110 0
-111 -119 0
-119 -111 0
-112 -120 0
-120 -112 0
-121 -113 0
-122 -114 0
-114 -122 0
-99 -123 0
-123 -99 0
-102 -126 0
-126 -102 0
-127 -103 0
-103 -127 0
-104 -129 0
-105 -130 0
-106 -131 0
-107 -132 0
-132 -107 0
-139 -144 0
-144 -139 0
-145 -141 0
-146 -142 0
-142 -146 0
-136 -147 0
-147 -136 0
-148 -137 0
-149 -138 0
