projected/problems_b25_r0_d7_m100_s666/b25_d7_r0_s666_019.smt2
(set-logic QF_UF)
(declare-fun A0 () Bool)
(declare-fun A1 () Bool)
(declare-fun A2 () Bool)
(declare-fun A3 () Bool)
(declare-fun A4 () Bool)
(declare-fun A5 () Bool)
(declare-fun A6 () Bool)
(declare-fun A7 () Bool)
(declare-fun A8 () Bool)
(declare-fun A9 () Bool)
(declare-fun A10 () Bool)
(declare-fun A11 () Bool)
(declare-fun A12 () Bool)
(declare-fun A13 () Bool)
(declare-fun A14 () Bool)
(declare-fun A15 () Bool)
(declare-fun A16 () Bool)
(declare-fun A17 () Bool)
(declare-fun A18 () Bool)
(declare-fun A19 () Bool)
(declare-fun A20 () Bool)
(declare-fun A21 () Bool)
(declare-fun A22 () Bool)
(declare-fun A23 () Bool)
(declare-fun A24 () Bool)
(assert (let ((.def_0 (not A0))) (let ((.def_1 (or A13 .def_0))) (let ((.def_2 (and A12 A9))) (let ((.def_3 (not .def_2))) (let ((.def_4 (and .def_3 .def_1))) (let ((.def_5 (not A18))) (let ((.def_6 (and .def_5 .def_5))) (let ((.def_7 (not A1))) (let ((.def_8 (= A4 .def_7))) (let ((.def_9 (or .def_8 .def_6))) (let ((.def_10 (not .def_9))) (let ((.def_11 (and .def_10 .def_4))) (let ((.def_12 (not .def_11))) (let ((.def_13 (and .def_0 A4))) (let ((.def_14 (not .def_13))) (let ((.def_15 (not A6))) (let ((.def_16 (or A16 .def_15))) (let ((.def_17 (not .def_16))) (let ((.def_18 (and .def_17 .def_14))) (let ((.def_19 (not A13))) (let ((.def_20 (and A9 .def_19))) (let ((.def_21 (not A16))) (let ((.def_22 (and A11 .def_21))) (let ((.def_23 (and .def_22 .def_20))) (let ((.def_24 (and .def_23 .def_18))) (let ((.def_25 (and .def_24 .def_12))) (let ((.def_26 (or .def_19 .def_15))) (let ((.def_27 (not A2))) (let ((.def_28 (and .def_27 A9))) (let ((.def_29 (or .def_28 .def_26))) (let ((.def_30 (not .def_29))) (let ((.def_31 (and A4 .def_21))) (let ((.def_32 (not .def_31))) (let ((.def_33 (not A15))) (let ((.def_34 (and A11 .def_33))) (let ((.def_35 (and .def_34 .def_32))) (let ((.def_36 (not .def_35))) (let ((.def_37 (or .def_36 .def_30))) (let ((.def_38 (not .def_37))) (let ((.def_39 (and A9 .def_7))) (let ((.def_40 (not .def_39))) (let ((.def_41 (and A20 A4))) (let ((.def_42 (and .def_41 .def_40))) (let ((.def_43 (not A3))) (let ((.def_44 (= A18 .def_43))) (let ((.def_45 (not A7))) (let ((.def_46 (and A13 .def_45))) (let ((.def_47 (and .def_46 .def_44))) (let ((.def_48 (not .def_47))) (let ((.def_49 (or .def_48 .def_42))) (let ((.def_50 (not .def_49))) (let ((.def_51 (or .def_50 .def_38))) (let ((.def_52 (not .def_51))) (let ((.def_53 (or .def_52 .def_25))) (let ((.def_54 (not .def_53))) (let ((.def_55 (and A24 A4))) (let ((.def_56 (not .def_55))) (let ((.def_57 (or .def_19 .def_0))) (let ((.def_58 (not .def_57))) (let ((.def_59 (= .def_58 .def_56))) (let ((.def_60 (not .def_59))) (let ((.def_61 (not A23))) (let ((.def_62 (and .def_61 A21))) (let ((.def_63 (not A20))) (let ((.def_64 (not A11))) (let ((.def_65 (and .def_64 .def_63))) (let ((.def_66 (or .def_65 .def_62))) (let ((.def_67 (not .def_66))) (let ((.def_68 (and .def_67 .def_60))) (let ((.def_69 (not .def_68))) (let ((.def_70 (not A17))) (let ((.def_71 (or .def_70 A18))) (let ((.def_72 (or .def_63 .def_5))) (let ((.def_73 (and .def_72 .def_71))) (let ((.def_74 (not .def_73))) (let ((.def_75 (not A4))) (let ((.def_76 (and A0 .def_75))) (let ((.def_77 (not A8))) (let ((.def_78 (and .def_77 A2))) (let ((.def_79 (or .def_78 .def_76))) (let ((.def_80 (or .def_79 .def_74))) (let ((.def_81 (or .def_80 .def_69))) (let ((.def_82 (not .def_81))) (let ((.def_83 (not A14))) (let ((.def_84 (and .def_83 .def_19))) (let ((.def_85 (not .def_84))) (let ((.def_86 (not A5))) (let ((.def_87 (or A20 .def_86))) (let ((.def_88 (and .def_87 .def_85))) (let ((.def_89 (not .def_88))) (let ((.def_90 (= .def_33 A15))) (let ((.def_91 (not A9))) (let ((.def_92 (and .def_91 A6))) (let ((.def_93 (not .def_92))) (let ((.def_94 (and .def_93 .def_90))) (let ((.def_95 (not .def_94))) (let ((.def_96 (and .def_95 .def_89))) (let ((.def_97 (not .def_96))) (let ((.def_98 (or A10 .def_5))) (let ((.def_99 (not A24))) (let ((.def_100 (or A12 .def_99))) (let ((.def_101 (not .def_100))) (let ((.def_102 (= .def_101 .def_98))) (let ((.def_103 (not .def_102))) (let ((.def_104 (and .def_63 .def_7))) (let ((.def_105 (not .def_104))) (let ((.def_106 (not A22))) (let ((.def_107 (and .def_106 A10))) (let ((.def_108 (not .def_107))) (let ((.def_109 (and .def_108 .def_105))) (let ((.def_110 (and .def_109 .def_103))) (let ((.def_111 (not .def_110))) (let ((.def_112 (or .def_111 .def_97))) (let ((.def_113 (not .def_112))) (let ((.def_114 (or .def_113 .def_82))) (let ((.def_115 (and .def_114 .def_54))) (let ((.def_116 (or .def_63 .def_15))) (let ((.def_117 (or .def_70 A16))) (let ((.def_118 (or .def_117 .def_116))) (let ((.def_119 (not .def_118))) (let ((.def_120 (and A22 A3))) (let ((.def_121 (and A17 A4))) (let ((.def_122 (and .def_121 .def_120))) (let ((.def_123 (not .def_122))) (let ((.def_124 (and .def_123 .def_119))) (let ((.def_125 (or A7 A13))) (let ((.def_126 (and .def_106 A8))) (let ((.def_127 (not .def_126))) (let ((.def_128 (and .def_127 .def_125))) (let ((.def_129 (or A13 A7))) (let ((.def_130 (and .def_91 A24))) (let ((.def_131 (not .def_130))) (let ((.def_132 (and .def_131 .def_129))) (let ((.def_133 (and .def_132 .def_128))) (let ((.def_134 (= .def_133 .def_124))) (let ((.def_135 (not .def_134))) (let ((.def_136 (or .def_0 A9))) (let ((.def_137 (not .def_136))) (let ((.def_138 (and A19 A5))) (let ((.def_139 (= .def_138 .def_137))) (let ((.def_140 (not .def_139))) (let ((.def_141 (and A17 A19))) (let ((.def_142 (not .def_141))) (let ((.def_143 (or A23 A0))) (let ((.def_144 (or .def_143 .def_142))) (let ((.def_145 (or .def_144 .def_140))) (let ((.def_146 (not .def_145))) (let ((.def_147 (and A24 .def_70))) (let ((.def_148 (or A1 .def_27))) (let ((.def_149 (and .def_148 .def_147))) (let ((.def_150 (not .def_149))) (let ((.def_151 (or .def_83 .def_21))) (let ((.def_152 (not .def_151))) (let ((.def_153 (or A7 .def_77))) (let ((.def_154 (not .def_153))) (let ((.def_155 (or .def_154 .def_152))) (let ((.def_156 (not .def_155))) (let ((.def_157 (and .def_156 .def_150))) (let ((.def_158 (not .def_157))) (let ((.def_159 (and .def_158 .def_146))) (let ((.def_160 (and .def_159 .def_135))) (let ((.def_161 (and A10 A12))) (let ((.def_162 (not .def_161))) (let ((.def_163 (and A19 .def_15))) (let ((.def_164 (not .def_163))) (let ((.def_165 (or .def_164 .def_162))) (let ((.def_166 (and .def_63 A2))) (let ((.def_167 (not .def_166))) (let ((.def_168 (or A13 A22))) (let ((.def_169 (not .def_168))) (let ((.def_170 (or .def_169 .def_167))) (let ((.def_171 (or .def_170 .def_165))) (let ((.def_172 (not .def_171))) (let ((.def_173 (or .def_86 A12))) (let ((.def_174 (not .def_173))) (let ((.def_175 (= A22 .def_64))) (let ((.def_176 (not .def_175))) (let ((.def_177 (or .def_176 .def_174))) (let ((.def_178 (not .def_177))) (let ((.def_179 (or A24 A19))) (let ((.def_180 (or .def_99 A8))) (let ((.def_181 (or .def_180 .def_179))) (let ((.def_182 (or .def_181 .def_178))) (let ((.def_183 (not .def_182))) (let ((.def_184 (= .def_183 .def_172))) (let ((.def_185 (or A17 A16))) (let ((.def_186 (not .def_185))) (let ((.def_187 (and A6 .def_21))) (let ((.def_188 (or .def_187 .def_186))) (let ((.def_189 (not .def_188))) (let ((.def_190 (or .def_83 A19))) (let ((.def_191 (not .def_190))) (let ((.def_192 (or .def_91 A2))) (let ((.def_193 (and .def_192 .def_191))) (let ((.def_194 (= .def_193 .def_189))) (let ((.def_195 (not .def_194))) (let ((.def_196 (or .def_77 .def_43))) (let ((.def_197 (= .def_15 .def_5))) (let ((.def_198 (not .def_197))) (let ((.def_199 (and .def_198 .def_196))) (let ((.def_200 (and A7 A23))) (let ((.def_201 (= A9 A7))) (let ((.def_202 (or .def_201 .def_200))) (let ((.def_203 (or .def_202 .def_199))) (let ((.def_204 (not .def_203))) (let ((.def_205 (and .def_204 .def_195))) (let ((.def_206 (not .def_205))) (let ((.def_207 (and .def_206 .def_184))) (let ((.def_208 (and .def_207 .def_160))) (let ((.def_209 (or .def_208 .def_115))) (let ((.def_210 (not .def_209))) .def_210))))))))))))))))))))))))))))))))))))))))))))))))))))))))))))))))))))))))))))))))))))))))))))))))))))))))))))))))))))))))))))))))))))))))))))))))))))))))))))))))))))))))))))))))))))))))))))))))))))))))))))))))))))
(check-sat)
